\ SCIP STATISTICS
\   Problem name     : SetCover-100-150
\   Variables        : 150 (150 binary, 0 integer, 0 implicit integer, 0 continuous)
\   Constraints      : 100
Minimize
 Obj: +8 x0 +15 x1 +66 x2 +70 x3 +25 x4 +32 x5 +95 x6 +17 x7 +58 x8 +53 x9 +13 x10 +22 x11 +20 x12 +52 x13
      +87 x14 +70 x15 +81 x16 +89 x17 +42 x18 +28 x19 +86 x20 +79 x21 +42 x22 +89 x23 +33 x24 +24 x25
      +96 x26 +92 x27 +84 x28 +60 x29 +85 x30 +43 x31 +70 x32 +78 x33 +32 x34 +60 x35 +22 x36 +65 x37
      +19 x38 +80 x39 +30 x40 +43 x41 +90 x42 +38 x43 +45 x44 +91 x45 +85 x46 +30 x47 +48 x48 +32 x49
      +65 x50 +88 x51 +4 x52 +98 x53 +64 x54 +49 x55 +48 x56 +43 x57 +34 x58 +17 x59 +92 x60 +14 x61 +50 x62
      +35 x63 +83 x64 +20 x65 +50 x66 +69 x67 +92 x68 +1 x69 +25 x70 +42 x71 +88 x72 +48 x73 +40 x74 +32 x75
      +74 x76 +62 x77 +11 x78 +59 x79 +7 x80 +2 x81 +23 x82 +9 x83 +95 x84 +13 x85 +69 x86 +61 x87 +42 x88
      +74 x89 +71 x90 +90 x91 +70 x92 +27 x93 +24 x94 +15 x95 +96 x96 +3 x97 +50 x98 +9 x99 +10 x100 +52 x101
      +99 x102 +75 x103 +95 x104 +37 x105 +53 x106 +12 x107 +90 x108 +9 x109 +88 x110 +11 x111 +88 x112
      +81 x113 +80 x114 +18 x115 +39 x116 +47 x117 +10 x118 +49 x119 +22 x120 +39 x121 +69 x122 +64 x123
      +17 x124 +94 x125 +77 x126 +85 x127 +10 x128 +36 x129 +96 x130 +91 x131 +19 x132 +67 x133 +14 x134
      +95 x135 +49 x136 +86 x137 +80 x138 +67 x139 +81 x140 +30 x141 +35 x142 +51 x143 +13 x144 +46 x145
      +48 x146 +100 x147 +80 x148 +72 x149
Subject to
 c0: +1 x1 +1 x21 +1 x32 +1 x37 +1 x41 +1 x44 +1 x53 +1 x56 +1 x58 +1 x62 +1 x100 +1 x102 +1 x110 +1 x113
  +1 x115 +1 x125 +1 x130 >= +1
 c1: +1 x6 +1 x16 +1 x26 +1 x27 +1 x47 +1 x48 +1 x55 +1 x58 +1 x61 +1 x71 +1 x73 +1 x93 +1 x95 +1 x138
  >= +1
 c2: +1 x7 +1 x12 +1 x18 +1 x25 +1 x38 +1 x49 +1 x50 +1 x61 +1 x64 +1 x66 +1 x69 +1 x71 +1 x73 +1 x102
  +1 x109 +1 x115 +1 x134 +1 x143 +1 x146 >= +1
 c3: +1 x2 +1 x16 +1 x23 +1 x30 +1 x31 +1 x52 +1 x72 +1 x75 +1 x77 +1 x84 +1 x94 +1 x101 +1 x106 +1 x108
  +1 x128 +1 x146 +1 x149 >= +1
 c4: +1 x5 +1 x11 +1 x19 +1 x37 +1 x38 +1 x45 +1 x53 +1 x54 +1 x56 +1 x61 +1 x79 +1 x93 +1 x112 +1 x136
  >= +1
 c5: +1 x0 +1 x11 +1 x25 +1 x26 +1 x32 +1 x33 +1 x34 +1 x54 +1 x56 +1 x63 +1 x75 +1 x78 +1 x80 +1 x81
  +1 x89 +1 x106 +1 x109 +1 x112 +1 x117 +1 x122 >= +1
 c6: +1 x7 +1 x32 +1 x34 +1 x49 +1 x58 +1 x62 +1 x71 +1 x91 +1 x95 +1 x106 +1 x133 >= +1
 c7: +1 x9 +1 x12 +1 x22 +1 x28 +1 x35 +1 x41 +1 x42 +1 x45 +1 x54 +1 x59 +1 x60 +1 x80 +1 x106 +1 x122
  +1 x124 +1 x138 >= +1
 c8: +1 x4 +1 x16 +1 x24 +1 x32 +1 x34 +1 x37 +1 x46 +1 x49 +1 x52 +1 x64 +1 x109 +1 x112 +1 x122 +1 x124
  +1 x137 +1 x147 >= +1
 c9: +1 x0 +1 x15 +1 x18 +1 x30 +1 x31 +1 x34 +1 x37 +1 x48 +1 x52 +1 x55 +1 x57 +1 x58 +1 x62 +1 x67
  +1 x95 +1 x104 +1 x105 +1 x114 +1 x125 +1 x126 +1 x136 +1 x146 >= +1
 c10: +1 x2 +1 x12 +1 x14 +1 x19 +1 x23 +1 x48 +1 x63 +1 x69 +1 x86 +1 x96 +1 x119 +1 x123 +1 x133 >= +1
 c11: +1 x4 +1 x14 +1 x17 +1 x38 +1 x81 +1 x84 +1 x96 +1 x125 +1 x127 +1 x149 >= +1
 c12: +1 x2 +1 x17 +1 x18 +1 x22 +1 x39 +1 x50 +1 x78 +1 x82 +1 x83 +1 x87 +1 x133 +1 x136 +1 x148 >= +1
 c13: +1 x2 +1 x20 +1 x22 +1 x23 +1 x38 +1 x43 +1 x70 +1 x74 +1 x75 +1 x90 +1 x95 +1 x107 +1 x108 +1 x114
  +1 x135 >= +1
 c14: +1 x4 +1 x18 +1 x38 +1 x46 +1 x48 +1 x50 +1 x65 +1 x84 +1 x92 +1 x102 +1 x103 +1 x109 +1 x116 +1 x138
  >= +1
 c15: +1 x2 +1 x21 +1 x38 +1 x39 +1 x41 +1 x60 +1 x76 +1 x78 +1 x90 +1 x91 +1 x99 +1 x117 +1 x122 +1 x123
  +1 x127 +1 x129 +1 x130 >= +1
 c16: +1 x2 +1 x14 +1 x33 +1 x36 +1 x42 +1 x45 +1 x54 +1 x56 +1 x75 +1 x78 +1 x84 +1 x90 +1 x98 +1 x100
  +1 x102 +1 x109 +1 x114 +1 x143 +1 x146 >= +1
 c17: +1 x9 +1 x18 +1 x22 +1 x28 +1 x34 +1 x38 +1 x54 +1 x86 +1 x90 +1 x93 +1 x103 +1 x115 +1 x117 +1 x128
  +1 x144 >= +1
 c18: +1 x9 +1 x15 +1 x19 +1 x23 +1 x25 +1 x28 +1 x36 +1 x42 +1 x43 +1 x48 +1 x59 +1 x61 +1 x65 +1 x81
  +1 x85 +1 x110 +1 x112 +1 x122 +1 x134 +1 x137 +1 x148 >= +1
 c19: +1 x8 +1 x17 +1 x18 +1 x22 +1 x38 +1 x54 +1 x64 +1 x66 +1 x71 +1 x91 +1 x97 +1 x119 +1 x124 +1 x125
  +1 x135 +1 x139 +1 x141 +1 x145 >= +1
 c20: +1 x5 +1 x21 +1 x22 +1 x30 +1 x36 +1 x41 +1 x45 +1 x57 +1 x67 +1 x71 +1 x102 +1 x108 +1 x116 +1 x122
  +1 x145 >= +1
 c21: +1 x3 +1 x14 +1 x42 +1 x58 +1 x60 +1 x61 +1 x77 +1 x81 +1 x89 +1 x93 +1 x94 +1 x101 +1 x102 +1 x110
  +1 x117 +1 x120 +1 x122 +1 x123 +1 x127 +1 x143 >= +1
 c22: +1 x9 +1 x38 +1 x47 +1 x56 +1 x57 +1 x59 +1 x73 +1 x74 +1 x109 +1 x114 +1 x118 +1 x125 +1 x145 +1 x149
  >= +1
 c23: +1 x6 +1 x17 +1 x18 +1 x26 +1 x29 +1 x31 +1 x49 +1 x54 +1 x65 +1 x66 +1 x67 +1 x75 +1 x78 +1 x89
  +1 x90 +1 x93 +1 x98 +1 x105 +1 x108 +1 x131 +1 x132 +1 x137 +1 x141 >= +1
 c24: +1 x1 +1 x17 +1 x29 +1 x55 +1 x69 +1 x73 +1 x77 +1 x82 +1 x85 +1 x91 +1 x102 +1 x104 +1 x132 +1 x141
  +1 x147 >= +1
 c25: +1 x6 +1 x12 +1 x16 +1 x36 +1 x61 +1 x72 +1 x73 +1 x75 +1 x76 +1 x82 +1 x110 +1 x130 +1 x133 >= +1
 c26: +1 x7 +1 x14 +1 x32 +1 x38 +1 x40 +1 x67 +1 x81 +1 x84 +1 x91 +1 x92 +1 x103 +1 x112 +1 x121 +1 x139
  +1 x141 +1 x144 +1 x149 >= +1
 c27: +1 x4 +1 x12 +1 x15 +1 x17 +1 x31 +1 x35 +1 x40 +1 x52 +1 x55 +1 x68 +1 x80 +1 x89 +1 x107 +1 x112
  +1 x120 +1 x129 +1 x130 +1 x131 +1 x141 >= +1
 c28: +1 x10 +1 x13 +1 x15 +1 x18 +1 x19 +1 x24 +1 x30 +1 x31 +1 x39 +1 x42 +1 x43 +1 x49 +1 x53 +1 x62
  +1 x71 +1 x86 +1 x91 +1 x98 +1 x99 +1 x109 +1 x118 +1 x121 +1 x129 +1 x133 +1 x138 >= +1
 c29: +1 x7 +1 x28 +1 x45 +1 x69 +1 x82 +1 x110 +1 x120 +1 x127 +1 x140 +1 x142 +1 x143 +1 x146 >= +1
 c30: +1 x9 +1 x27 +1 x29 +1 x47 +1 x64 +1 x72 +1 x83 +1 x88 +1 x89 +1 x103 +1 x112 +1 x122 +1 x126 +1 x129
  >= +1
 c31: +1 x9 +1 x18 +1 x28 +1 x31 +1 x37 +1 x50 +1 x54 +1 x79 +1 x81 +1 x86 +1 x104 +1 x107 +1 x111 +1 x118
  +1 x120 +1 x125 +1 x126 +1 x127 >= +1
 c32: +1 x7 +1 x21 +1 x33 +1 x69 +1 x76 +1 x90 +1 x97 +1 x101 +1 x105 +1 x113 +1 x119 +1 x148 >= +1
 c33: +1 x3 +1 x16 +1 x25 +1 x44 +1 x53 +1 x64 +1 x65 +1 x68 +1 x89 +1 x111 +1 x117 +1 x128 +1 x145 >= +1
 c34: +1 x0 +1 x11 +1 x12 +1 x24 +1 x50 +1 x51 +1 x59 +1 x60 +1 x67 +1 x78 +1 x109 +1 x125 +1 x145 +1 x149
  >= +1
 c35: +1 x10 +1 x13 +1 x15 +1 x19 +1 x24 +1 x25 +1 x38 +1 x46 +1 x50 +1 x59 +1 x79 +1 x82 +1 x89 +1 x92
  +1 x95 +1 x96 +1 x107 +1 x109 +1 x110 +1 x114 +1 x116 +1 x120 +1 x137 +1 x147 >= +1
 c36: +1 x10 +1 x19 +1 x21 +1 x24 +1 x48 +1 x72 +1 x85 +1 x103 +1 x109 +1 x116 +1 x121 +1 x124 +1 x128
  +1 x141 +1 x143 >= +1
 c37: +1 x8 +1 x25 +1 x26 +1 x34 +1 x35 +1 x37 +1 x61 +1 x62 +1 x78 +1 x88 +1 x91 +1 x105 +1 x126 +1 x128
  +1 x140 +1 x143 +1 x144 +1 x146 >= +1
 c38: +1 x3 +1 x15 +1 x21 +1 x28 +1 x31 +1 x43 +1 x49 +1 x62 +1 x92 +1 x103 +1 x127 >= +1
 c39: +1 x4 +1 x16 +1 x40 +1 x41 +1 x46 +1 x71 +1 x72 +1 x90 +1 x102 +1 x108 +1 x117 +1 x121 +1 x124 +1 x125
  +1 x133 +1 x143 +1 x145 +1 x147 >= +1
 c40: +1 x10 +1 x11 +1 x32 +1 x48 +1 x55 +1 x56 +1 x67 +1 x94 +1 x97 +1 x105 +1 x109 +1 x116 +1 x117 +1 x136
  +1 x140 +1 x144 >= +1
 c41: +1 x7 +1 x14 +1 x31 +1 x35 +1 x45 +1 x73 +1 x82 +1 x101 +1 x102 +1 x116 +1 x123 +1 x141 +1 x143
  >= +1
 c42: +1 x4 +1 x18 +1 x37 +1 x38 +1 x73 +1 x79 +1 x92 +1 x110 +1 x118 +1 x122 >= +1
 c43: +1 x5 +1 x27 +1 x46 +1 x62 +1 x64 +1 x78 +1 x88 +1 x102 +1 x127 +1 x132 >= +1
 c44: +1 x4 +1 x11 +1 x14 +1 x25 +1 x30 +1 x47 +1 x62 +1 x74 +1 x83 +1 x111 +1 x118 +1 x138 +1 x144 >= +1
 c45: +1 x4 +1 x17 +1 x18 +1 x48 +1 x54 +1 x56 +1 x66 +1 x81 +1 x87 +1 x95 +1 x114 +1 x116 +1 x127 +1 x131
  +1 x134 +1 x136 >= +1
 c46: +1 x3 +1 x30 +1 x40 +1 x47 +1 x51 +1 x52 +1 x95 +1 x100 +1 x106 +1 x119 >= +1
 c47: +1 x5 +1 x11 +1 x15 +1 x18 +1 x23 +1 x26 +1 x34 +1 x52 +1 x70 +1 x74 +1 x121 +1 x129 +1 x135 +1 x137
  +1 x146 +1 x147 >= +1
 c48: +1 x0 +1 x11 +1 x32 +1 x37 +1 x48 +1 x52 +1 x68 +1 x77 +1 x91 +1 x98 +1 x100 +1 x106 +1 x113 +1 x116
  +1 x127 +1 x128 +1 x139 +1 x149 >= +1
 c49: +1 x1 +1 x43 +1 x50 +1 x61 +1 x66 +1 x69 +1 x77 +1 x84 +1 x96 +1 x100 +1 x106 +1 x114 +1 x120 +1 x130
  >= +1
 c50: +1 x2 +1 x13 +1 x28 +1 x62 +1 x64 +1 x66 +1 x73 +1 x74 +1 x85 +1 x113 +1 x116 +1 x123 +1 x127 +1 x141
  +1 x143 >= +1
 c51: +1 x1 +1 x28 +1 x42 +1 x43 +1 x75 +1 x103 +1 x135 +1 x143 +1 x148 >= +1
 c52: +1 x9 +1 x37 +1 x39 +1 x60 +1 x64 +1 x86 +1 x96 +1 x99 +1 x113 +1 x116 +1 x141 >= +1
 c53: +1 x3 +1 x24 +1 x28 +1 x48 +1 x52 +1 x58 +1 x67 +1 x85 +1 x87 +1 x99 +1 x106 +1 x130 +1 x142 >= +1
 c54: +1 x6 +1 x13 +1 x24 +1 x31 +1 x39 +1 x41 +1 x58 +1 x64 +1 x71 +1 x73 +1 x75 +1 x89 +1 x112 +1 x118
  +1 x128 +1 x132 +1 x137 +1 x141 >= +1
 c55: +1 x6 +1 x15 +1 x25 +1 x47 +1 x60 +1 x83 +1 x84 +1 x85 +1 x87 +1 x99 +1 x105 +1 x128 +1 x149 >= +1
 c56: +1 x2 +1 x17 +1 x24 +1 x26 +1 x45 +1 x56 +1 x85 +1 x87 +1 x103 +1 x131 >= +1
 c57: +1 x11 +1 x16 +1 x20 +1 x33 +1 x63 +1 x81 +1 x98 +1 x99 +1 x114 +1 x120 +1 x143 +1 x144 +1 x148
  >= +1
 c58: +1 x9 +1 x22 +1 x42 +1 x48 +1 x52 +1 x54 +1 x77 +1 x89 +1 x99 +1 x102 +1 x117 +1 x119 +1 x123 +1 x125
  +1 x127 +1 x140 >= +1
 c59: +1 x2 +1 x12 +1 x18 +1 x37 +1 x38 +1 x46 +1 x49 +1 x61 +1 x65 +1 x87 +1 x91 +1 x101 +1 x105 +1 x112
  +1 x148 >= +1
 c60: +1 x6 +1 x23 +1 x29 +1 x37 +1 x54 +1 x70 +1 x74 +1 x75 +1 x77 +1 x100 +1 x112 +1 x114 +1 x126 >= +1
 c61: +1 x6 +1 x11 +1 x12 +1 x21 +1 x47 +1 x53 +1 x54 +1 x86 +1 x126 +1 x128 >= +1
 c62: +1 x10 +1 x15 +1 x20 +1 x35 +1 x43 +1 x78 +1 x92 +1 x96 +1 x109 +1 x110 +1 x117 +1 x121 +1 x126
  +1 x130 +1 x139 +1 x142 >= +1
 c63: +1 x5 +1 x15 +1 x38 +1 x42 +1 x43 +1 x45 +1 x70 +1 x77 +1 x90 +1 x99 +1 x116 +1 x127 +1 x129 +1 x137
  >= +1
 c64: +1 x10 +1 x55 +1 x88 +1 x90 +1 x127 +1 x129 +1 x130 >= +1
 c65: +1 x9 +1 x11 +1 x19 +1 x25 +1 x31 +1 x65 +1 x77 +1 x86 +1 x95 +1 x103 +1 x105 +1 x119 +1 x120 +1 x123
  >= +1
 c66: +1 x8 +1 x35 +1 x37 +1 x45 +1 x51 +1 x61 +1 x64 +1 x69 +1 x75 +1 x86 +1 x93 +1 x104 +1 x111 +1 x112
  +1 x115 +1 x117 +1 x124 +1 x146 >= +1
 c67: +1 x0 +1 x13 +1 x14 +1 x23 +1 x36 +1 x44 +1 x79 +1 x87 +1 x89 +1 x94 +1 x97 +1 x107 +1 x121 +1 x123
  +1 x125 +1 x143 >= +1
 c68: +1 x3 +1 x17 +1 x23 +1 x24 +1 x45 +1 x51 +1 x57 +1 x61 +1 x66 +1 x94 +1 x102 +1 x105 +1 x109 +1 x111
  +1 x114 +1 x120 +1 x125 +1 x138 +1 x139 +1 x144 +1 x146 +1 x147 >= +1
 c69: +1 x6 +1 x15 +1 x20 +1 x24 +1 x29 +1 x51 +1 x52 +1 x56 +1 x57 +1 x71 +1 x86 +1 x90 +1 x91 +1 x124
  +1 x136 +1 x147 >= +1
 c70: +1 x6 +1 x20 +1 x23 +1 x24 +1 x41 +1 x46 +1 x62 +1 x90 +1 x100 +1 x105 +1 x132 +1 x140 +1 x147 >= +1
 c71: +1 x4 +1 x16 +1 x22 +1 x27 +1 x60 +1 x61 +1 x70 +1 x82 +1 x103 +1 x120 +1 x124 +1 x144 >= +1
 c72: +1 x10 +1 x24 +1 x48 +1 x55 +1 x63 +1 x66 +1 x79 +1 x94 +1 x103 +1 x110 +1 x112 +1 x126 >= +1
 c73: +1 x10 +1 x14 +1 x33 +1 x57 +1 x70 +1 x71 +1 x82 +1 x95 +1 x100 +1 x101 +1 x108 +1 x112 +1 x124
  +1 x130 +1 x146 >= +1
 c74: +1 x8 +1 x11 +1 x16 +1 x19 +1 x35 +1 x37 +1 x40 +1 x58 +1 x66 +1 x78 +1 x85 +1 x91 +1 x105 +1 x118
  +1 x124 +1 x128 +1 x133 +1 x135 +1 x138 +1 x141 >= +1
 c75: +1 x3 +1 x11 +1 x48 +1 x49 +1 x52 +1 x56 +1 x57 +1 x58 +1 x62 +1 x67 +1 x73 +1 x79 +1 x86 +1 x94
  +1 x103 +1 x107 +1 x110 +1 x120 +1 x121 +1 x144 >= +1
 c76: +1 x6 +1 x14 +1 x15 +1 x26 +1 x42 +1 x53 +1 x60 +1 x62 +1 x78 +1 x85 +1 x111 +1 x117 +1 x118 +1 x136
  >= +1
 c77: +1 x5 +1 x19 +1 x20 +1 x21 +1 x24 +1 x26 +1 x69 +1 x72 +1 x104 +1 x109 +1 x119 +1 x121 +1 x147 >= +1
 c78: +1 x8 +1 x52 +1 x57 +1 x63 +1 x65 +1 x78 +1 x80 +1 x81 +1 x96 +1 x111 +1 x113 +1 x137 +1 x145 +1 x149
  >= +1
 c79: +1 x1 +1 x18 +1 x22 +1 x31 +1 x34 +1 x48 +1 x49 +1 x56 +1 x59 +1 x63 +1 x69 +1 x71 +1 x73 +1 x79
  +1 x112 +1 x116 +1 x117 +1 x119 +1 x123 +1 x146 >= +1
 c80: +1 x6 +1 x26 +1 x31 +1 x37 +1 x43 +1 x49 +1 x56 +1 x67 +1 x73 +1 x74 +1 x91 +1 x93 +1 x116 +1 x130
  +1 x134 +1 x135 >= +1
 c81: +1 x4 +1 x32 +1 x36 +1 x44 +1 x53 +1 x58 +1 x74 +1 x96 +1 x107 +1 x113 +1 x116 +1 x134 +1 x146 >= +1
 c82: +1 x7 +1 x23 +1 x27 +1 x57 +1 x61 +1 x68 +1 x70 +1 x104 +1 x109 +1 x145 +1 x149 >= +1
 c83: +1 x7 +1 x14 +1 x27 +1 x35 +1 x68 +1 x100 +1 x108 +1 x124 +1 x137 +1 x145 >= +1
 c84: +1 x8 +1 x25 +1 x27 +1 x29 +1 x42 +1 x49 +1 x63 +1 x65 +1 x68 +1 x90 +1 x98 +1 x105 +1 x110 +1 x118
  +1 x126 +1 x127 +1 x131 +1 x140 >= +1
 c85: +1 x0 +1 x11 +1 x15 +1 x35 +1 x39 +1 x63 +1 x77 +1 x90 +1 x94 +1 x96 +1 x106 +1 x133 +1 x138 >= +1
 c86: +1 x3 +1 x24 +1 x38 +1 x65 +1 x70 +1 x82 +1 x84 +1 x107 +1 x114 +1 x128 +1 x134 +1 x137 >= +1
 c87: +1 x3 +1 x12 +1 x15 +1 x20 +1 x21 +1 x23 +1 x30 +1 x32 +1 x33 +1 x36 +1 x42 +1 x47 +1 x48 +1 x54
  +1 x62 +1 x65 +1 x72 +1 x113 +1 x136 +1 x137 +1 x148 >= +1
 c88: +1 x5 +1 x27 +1 x31 +1 x35 +1 x38 +1 x40 +1 x56 +1 x77 +1 x78 +1 x84 +1 x87 +1 x105 +1 x138 +1 x143
  >= +1
 c89: +1 x11 +1 x24 +1 x39 +1 x62 +1 x64 +1 x74 +1 x75 +1 x90 +1 x116 +1 x127 +1 x141 +1 x148 >= +1
 c90: +1 x8 +1 x14 +1 x44 +1 x55 +1 x61 +1 x63 +1 x85 +1 x89 +1 x106 +1 x109 +1 x120 +1 x125 +1 x131 +1 x139
  >= +1
 c91: +1 x2 +1 x16 +1 x28 +1 x40 +1 x73 +1 x82 +1 x84 +1 x96 +1 x120 +1 x123 +1 x132 +1 x134 +1 x143 >= +1
 c92: +1 x8 +1 x19 +1 x28 +1 x47 +1 x53 +1 x72 +1 x73 +1 x76 +1 x86 +1 x89 +1 x92 +1 x126 >= +1
 c93: +1 x6 +1 x15 +1 x19 +1 x67 +1 x107 +1 x108 +1 x114 +1 x123 +1 x141 +1 x146 >= +1
 c94: +1 x10 +1 x12 +1 x23 +1 x25 +1 x34 +1 x40 +1 x68 +1 x71 +1 x75 +1 x106 +1 x134 +1 x146 >= +1
 c95: +1 x5 +1 x37 +1 x39 +1 x53 +1 x74 +1 x77 +1 x85 +1 x93 +1 x99 +1 x104 +1 x106 +1 x119 +1 x123 >= +1
 c96: +1 x8 +1 x23 +1 x26 +1 x40 +1 x41 +1 x45 +1 x52 +1 x53 +1 x54 +1 x82 +1 x90 +1 x92 +1 x108 +1 x124
  +1 x127 +1 x132 +1 x134 +1 x136 +1 x139 +1 x143 >= +1
 c97: +1 x9 +1 x30 +1 x39 +1 x40 +1 x44 +1 x51 +1 x66 +1 x68 +1 x71 +1 x95 +1 x108 +1 x112 +1 x115 +1 x128
  +1 x130 +1 x138 +1 x149 >= +1
 c98: +1 x5 +1 x38 +1 x45 +1 x46 +1 x48 +1 x59 +1 x62 +1 x77 +1 x80 +1 x82 +1 x95 +1 x105 +1 x135 +1 x138
  +1 x144 +1 x145 >= +1
 c99: +1 x0 +1 x13 +1 x21 +1 x32 +1 x41 +1 x47 +1 x48 +1 x56 +1 x83 +1 x93 +1 x95 +1 x101 +1 x107 +1 x138
  >= +1
Bounds
 0 <= x0 <= 1
 0 <= x1 <= 1
 0 <= x2 <= 1
 0 <= x3 <= 1
 0 <= x4 <= 1
 0 <= x5 <= 1
 0 <= x6 <= 1
 0 <= x7 <= 1
 0 <= x8 <= 1
 0 <= x9 <= 1
 0 <= x10 <= 1
 0 <= x11 <= 1
 0 <= x12 <= 1
 0 <= x13 <= 1
 0 <= x14 <= 1
 0 <= x15 <= 1
 0 <= x16 <= 1
 0 <= x17 <= 1
 0 <= x18 <= 1
 0 <= x19 <= 1
 0 <= x20 <= 1
 0 <= x21 <= 1
 0 <= x22 <= 1
 0 <= x23 <= 1
 0 <= x24 <= 1
 0 <= x25 <= 1
 0 <= x26 <= 1
 0 <= x27 <= 1
 0 <= x28 <= 1
 0 <= x29 <= 1
 0 <= x30 <= 1
 0 <= x31 <= 1
 0 <= x32 <= 1
 0 <= x33 <= 1
 0 <= x34 <= 1
 0 <= x35 <= 1
 0 <= x36 <= 1
 0 <= x37 <= 1
 0 <= x38 <= 1
 0 <= x39 <= 1
 0 <= x40 <= 1
 0 <= x41 <= 1
 0 <= x42 <= 1
 0 <= x43 <= 1
 0 <= x44 <= 1
 0 <= x45 <= 1
 0 <= x46 <= 1
 0 <= x47 <= 1
 0 <= x48 <= 1
 0 <= x49 <= 1
 0 <= x50 <= 1
 0 <= x51 <= 1
 0 <= x52 <= 1
 0 <= x53 <= 1
 0 <= x54 <= 1
 0 <= x55 <= 1
 0 <= x56 <= 1
 0 <= x57 <= 1
 0 <= x58 <= 1
 0 <= x59 <= 1
 0 <= x60 <= 1
 0 <= x61 <= 1
 0 <= x62 <= 1
 0 <= x63 <= 1
 0 <= x64 <= 1
 0 <= x65 <= 1
 0 <= x66 <= 1
 0 <= x67 <= 1
 0 <= x68 <= 1
 0 <= x69 <= 1
 0 <= x70 <= 1
 0 <= x71 <= 1
 0 <= x72 <= 1
 0 <= x73 <= 1
 0 <= x74 <= 1
 0 <= x75 <= 1
 0 <= x76 <= 1
 0 <= x77 <= 1
 0 <= x78 <= 1
 0 <= x79 <= 1
 0 <= x80 <= 1
 0 <= x81 <= 1
 0 <= x82 <= 1
 0 <= x83 <= 1
 0 <= x84 <= 1
 0 <= x85 <= 1
 0 <= x86 <= 1
 0 <= x87 <= 1
 0 <= x88 <= 1
 0 <= x89 <= 1
 0 <= x90 <= 1
 0 <= x91 <= 1
 0 <= x92 <= 1
 0 <= x93 <= 1
 0 <= x94 <= 1
 0 <= x95 <= 1
 0 <= x96 <= 1
 0 <= x97 <= 1
 0 <= x98 <= 1
 0 <= x99 <= 1
 0 <= x100 <= 1
 0 <= x101 <= 1
 0 <= x102 <= 1
 0 <= x103 <= 1
 0 <= x104 <= 1
 0 <= x105 <= 1
 0 <= x106 <= 1
 0 <= x107 <= 1
 0 <= x108 <= 1
 0 <= x109 <= 1
 0 <= x110 <= 1
 0 <= x111 <= 1
 0 <= x112 <= 1
 0 <= x113 <= 1
 0 <= x114 <= 1
 0 <= x115 <= 1
 0 <= x116 <= 1
 0 <= x117 <= 1
 0 <= x118 <= 1
 0 <= x119 <= 1
 0 <= x120 <= 1
 0 <= x121 <= 1
 0 <= x122 <= 1
 0 <= x123 <= 1
 0 <= x124 <= 1
 0 <= x125 <= 1
 0 <= x126 <= 1
 0 <= x127 <= 1
 0 <= x128 <= 1
 0 <= x129 <= 1
 0 <= x130 <= 1
 0 <= x131 <= 1
 0 <= x132 <= 1
 0 <= x133 <= 1
 0 <= x134 <= 1
 0 <= x135 <= 1
 0 <= x136 <= 1
 0 <= x137 <= 1
 0 <= x138 <= 1
 0 <= x139 <= 1
 0 <= x140 <= 1
 0 <= x141 <= 1
 0 <= x142 <= 1
 0 <= x143 <= 1
 0 <= x144 <= 1
 0 <= x145 <= 1
 0 <= x146 <= 1
 0 <= x147 <= 1
 0 <= x148 <= 1
 0 <= x149 <= 1
Binaries
 x0 x1 x2 x3 x4 x5 x6 x7 x8 x9 x10 x11 x12 x13 x14 x15 x16 x17 x18 x19 x20 x21 x22 x23 x24 x25 x26 x27
 x28 x29 x30 x31 x32 x33 x34 x35 x36 x37 x38 x39 x40 x41 x42 x43 x44 x45 x46 x47 x48 x49 x50 x51 x52 x53
 x54 x55 x56 x57 x58 x59 x60 x61 x62 x63 x64 x65 x66 x67 x68 x69 x70 x71 x72 x73 x74 x75 x76 x77 x78 x79
 x80 x81 x82 x83 x84 x85 x86 x87 x88 x89 x90 x91 x92 x93 x94 x95 x96 x97 x98 x99 x100 x101 x102 x103 x104
 x105 x106 x107 x108 x109 x110 x111 x112 x113 x114 x115 x116 x117 x118 x119 x120 x121 x122 x123 x124 x125
 x126 x127 x128 x129 x130 x131 x132 x133 x134 x135 x136 x137 x138 x139 x140 x141 x142 x143 x144 x145 x146
 x147 x148 x149
End
